143269
101, 3, 18, 7, 32, 63, 53, 84, 33, 2, 82, 100, 39, 94, 70, 37, 49, 93, 12, 8, 97, 55, 29, 30, 5, 52, 65, 31, 13, 88, 69, 98, 106, 19, 68, 50, 26, 34, 83, 57, 80, 89, 74, 102, 24, 1, 87, 28, 27, 44, 66, 59, 10, 76, 58, 43, 79, 91, 60, 96, 78, 73, 48, 85, 36, 71, 54, 95, 67, 41, 11, 104, 38, 105, 99, 14, 47, 61, 103, 4, 15, 75, 35, 51, 72, 45, 62, 22, 21, 17, 90, 64, 16, 20, 56, 40, 6, 77, 46, 86, 25, 81, 42, 9, 92, 23
